(declare-const delta_tmp___0 Int)
(declare-const delta___cost Int)
(declare-const delta_va Int)
(declare-const delta_vb Int)
(assert (exists
         ((|tmp___0'?1| Int) (|vb'?2| Int) (|va'?3| Int) (|__cost'?4| Int)
            (phi_vb?5 Int) (phi_va?6 Int) (havoc?7 Int) (vb?8 Int) (va?9 Int)
            (tmp___0?10 Int) (m?11 Int) (__cost?12 Int))
         (and (<= (- vb?8) 0) (<= (- va?9) 0) (< (- m?11) 0) (< (- va?9) 0)
                (or (< havoc?7 0) (< 0 havoc?7)) (<= (- __cost?12) 0)
                (<= (+ (- __cost?12) -1) 0)
                (or (and (< (+ (- m?11) vb?8) 0)
                           (= (+ (- phi_va?6) va?9 -1) 0)
                           (= (+ (- phi_vb?5) vb?8 1) 0))
                      (and (<= (+ m?11 (- vb?8)) 0)
                             (= (+ (- phi_va?6) va?9) 0) (= (- phi_vb?5) 0)))
                (= (+ |tmp___0'?1| (- havoc?7)) 0)
                (= (+ |vb'?2| (- phi_vb?5)) 0) (= (+ |va'?3| (- phi_va?6)) 0)
                (= (+ |__cost'?4| (- __cost?12) -1) 0)
                (= delta___cost (+ |__cost'?4| (- __cost?12)))
                (= delta_va (+ |va'?3| (- va?9)))
                (= delta_vb (+ |vb'?2| (- vb?8)))
                (= delta_tmp___0 (+ |tmp___0'?1| (- tmp___0?10))))))
(check-sat)
